p cnf 412 698
71 58 38 76 0
71 58 38 -76 0
39 44 35 77 0
39 44 35 -77 0
27 -26 -1 78 0
27 -26 -1 -78 0
75 32 -29 79 0
75 32 -29 -79 0
40 7 -26 80 0
40 7 -26 -80 0
-7 16 -28 81 0
-7 16 -28 -81 0
63 62 7 82 0
63 62 7 -82 0
26 -39 56 83 0
26 -39 56 -83 0
-21 -59 -52 84 0
-21 -59 -52 -84 0
-16 -40 5 85 0
-16 -40 5 -85 0
-12 -71 -41 86 0
-12 -71 -41 -86 0
3 -27 -50 87 0
3 -27 -50 -87 0
40 75 26 88 0
40 75 26 -88 0
41 46 -68 89 0
41 46 -68 -89 0
16 35 31 90 0
16 35 31 -90 0
45 -13 -16 91 0
45 -13 -16 -91 0
-73 -54 -8 92 0
-73 -54 -8 -92 0
-34 -27 56 93 0
-34 -27 56 -93 0
-68 13 -52 94 0
-68 13 -52 -94 0
52 -45 31 95 0
52 -45 31 -95 0
-27 -34 45 96 0
-27 -34 45 -96 0
23 40 -75 97 0
23 40 -75 -97 0
-12 45 -13 98 0
-12 45 -13 -98 0
-74 21 73 99 0
-74 21 73 -99 0
47 -57 -72 100 0
47 -57 -72 -100 0
34 -15 -20 101 0
34 -15 -20 -101 0
24 5 -28 102 0
24 5 -28 -102 0
10 -46 9 103 0
10 -46 9 -103 0
7 36 -58 104 0
7 36 -58 -104 0
31 -58 45 105 0
31 -58 45 -105 0
14 18 49 106 0
14 18 49 -106 0
-20 -45 -36 107 0
-20 -45 -36 -107 0
11 3 41 108 0
11 3 41 -108 0
-57 32 -39 109 0
-57 32 -39 -109 0
-28 67 32 110 0
-28 67 32 -110 0
31 -32 -34 111 0
31 -32 -34 -111 0
-34 -10 24 112 0
-34 -10 24 -112 0
64 68 -19 113 0
64 68 -19 -113 0
-32 69 75 114 0
-32 69 75 -114 0
46 -61 -27 115 0
46 -61 -27 -115 0
-18 14 -2 116 0
-18 14 -2 -116 0
-31 -51 -75 117 0
-31 -51 -75 -117 0
71 -34 -48 118 0
71 -34 -48 -118 0
-58 20 54 119 0
-58 20 54 -119 0
-19 -61 -72 120 0
-19 -61 -72 -120 0
15 -5 68 121 0
15 -5 68 -121 0
7 -11 61 122 0
7 -11 61 -122 0
62 -61 -64 123 0
62 -61 -64 -123 0
-20 -58 71 124 0
-20 -58 71 -124 0
9 59 -72 125 0
9 59 -72 -125 0
-59 -43 -63 126 0
-59 -43 -63 -126 0
-62 -65 -54 127 0
-62 -65 -54 -127 0
-2 58 29 128 0
-2 58 29 -128 0
-42 37 -11 129 0
-42 37 -11 -129 0
-49 -42 -35 130 0
-49 -42 -35 -130 0
29 31 30 131 0
29 31 30 -131 0
-60 -68 -2 132 0
-60 -68 -2 -132 0
7 41 -55 133 0
7 41 -55 -133 0
-64 74 -34 134 0
-64 74 -34 -134 0
51 -10 34 135 0
51 -10 34 -135 0
72 9 -36 136 0
72 9 -36 -136 0
-38 -9 -35 137 0
-38 -9 -35 -137 0
37 54 -40 138 0
37 54 -40 -138 0
-14 3 69 139 0
-14 3 69 -139 0
-38 -53 40 140 0
-38 -53 40 -140 0
2 58 -28 141 0
2 58 -28 -141 0
-4 46 61 142 0
-4 46 61 -142 0
37 -47 12 143 0
37 -47 12 -143 0
-72 -2 29 144 0
-72 -2 29 -144 0
-21 11 -7 145 0
-21 11 -7 -145 0
6 -9 -51 146 0
6 -9 -51 -146 0
-11 48 -30 147 0
-11 48 -30 -147 0
-29 -47 -12 148 0
-29 -47 -12 -148 0
66 45 -1 149 0
66 45 -1 -149 0
-49 -55 -59 150 0
-49 -55 -59 -150 0
49 46 -73 151 0
49 46 -73 -151 0
-9 14 16 152 0
-9 14 16 -152 0
3 38 -73 153 0
3 38 -73 -153 0
14 68 -15 154 0
14 68 -15 -154 0
-62 -60 -29 155 0
-62 -60 -29 -155 0
35 -14 -39 156 0
35 -14 -39 -156 0
75 47 -55 157 0
75 47 -55 -157 0
-41 12 27 158 0
-41 12 27 -158 0
9 -39 22 159 0
9 -39 22 -159 0
72 39 -18 160 0
72 39 -18 -160 0
-19 -43 72 161 0
-19 -43 72 -161 0
24 75 6 162 0
24 75 6 -162 0
67 56 -26 163 0
67 56 -26 -163 0
-48 -28 -16 164 0
-48 -28 -16 -164 0
-28 -48 -31 165 0
-28 -48 -31 -165 0
29 -17 6 166 0
29 -17 6 -166 0
-59 23 5 167 0
-59 23 5 -167 0
3 18 75 168 0
3 18 75 -168 0
5 8 46 169 0
5 8 46 -169 0
-13 30 -70 170 0
-13 30 -70 -170 0
7 -29 10 171 0
7 -29 10 -171 0
19 36 -31 172 0
19 36 -31 -172 0
-42 -26 74 173 0
-42 -26 74 -173 0
60 -43 -30 174 0
60 -43 -30 -174 0
-17 -74 -46 175 0
-17 -74 -46 -175 0
67 28 -48 176 0
67 28 -48 -176 0
-23 -40 -12 177 0
-23 -40 -12 -177 0
-13 -15 67 178 0
-13 -15 67 -178 0
-39 -53 68 179 0
-39 -53 68 -179 0
45 -74 36 180 0
45 -74 36 -180 0
54 -51 -62 181 0
54 -51 -62 -181 0
8 -3 31 182 0
8 -3 31 -182 0
13 -62 34 183 0
13 -62 34 -183 0
29 -4 -5 184 0
29 -4 -5 -184 0
58 -42 -61 185 0
58 -42 -61 -185 0
-53 -36 -19 186 0
-53 -36 -19 -186 0
-30 70 -1 187 0
-30 70 -1 -187 0
-5 27 36 188 0
-5 27 36 -188 0
-65 59 5 189 0
-65 59 5 -189 0
-57 63 43 190 0
-57 63 43 -190 0
11 58 -60 191 0
11 58 -60 -191 0
28 51 -42 192 0
28 51 -42 -192 0
-3 40 -8 193 0
-3 40 -8 -193 0
-40 -68 22 194 0
-40 -68 22 -194 0
45 44 13 195 0
45 44 13 -195 0
36 -21 75 196 0
36 -21 75 -196 0
67 2 71 197 0
67 2 71 -197 0
14 -33 -71 198 0
14 -33 -71 -198 0
59 35 -66 199 0
59 35 -66 -199 0
-31 -49 21 200 0
-31 -49 21 -200 0
-62 -21 51 201 0
-62 -21 51 -201 0
8 -32 -27 202 0
8 -32 -27 -202 0
35 3 14 203 0
35 3 14 -203 0
29 8 -44 204 0
29 8 -44 -204 0
71 43 20 205 0
71 43 20 -205 0
47 -74 -26 206 0
47 -74 -26 -206 0
-47 -67 23 207 0
-47 -67 23 -207 0
-55 -29 -15 208 0
-55 -29 -15 -208 0
-2 13 -46 209 0
-2 13 -46 -209 0
18 -27 26 210 0
18 -27 26 -210 0
-43 14 36 211 0
-43 14 36 -211 0
59 8 12 212 0
59 8 12 -212 0
18 -61 35 213 0
18 -61 35 -213 0
-71 56 -31 214 0
-71 56 -31 -214 0
-24 43 -13 215 0
-24 43 -13 -215 0
-13 -48 69 216 0
-13 -48 69 -216 0
68 23 -37 217 0
68 23 -37 -217 0
-11 47 28 218 0
-11 47 28 -218 0
63 -74 61 219 0
63 -74 61 -219 0
4 -64 -55 220 0
4 -64 -55 -220 0
-71 51 -32 221 0
-71 51 -32 -221 0
-19 16 -20 222 0
-19 16 -20 -222 0
-23 -30 20 223 0
-23 -30 20 -223 0
-56 62 -21 224 0
-56 62 -21 -224 0
52 9 48 225 0
52 9 48 -225 0
-16 21 61 226 0
-16 21 61 -226 0
-43 29 -25 227 0
-43 29 -25 -227 0
-36 32 -75 228 0
-36 32 -75 -228 0
2 62 -61 229 0
2 62 -61 -229 0
-7 4 74 230 0
-7 4 74 -230 0
-66 50 -45 231 0
-66 50 -45 -231 0
61 -64 9 232 0
61 -64 9 -232 0
-54 -12 -49 233 0
-54 -12 -49 -233 0
52 68 -42 234 0
52 68 -42 -234 0
28 22 72 235 0
28 22 72 -235 0
50 -67 6 236 0
50 -67 6 -236 0
74 28 -15 237 0
74 28 -15 -237 0
-24 -16 -3 238 0
-24 -16 -3 -238 0
53 47 62 239 0
53 47 62 -239 0
11 -37 23 240 0
11 -37 23 -240 0
-38 -39 -14 241 0
-38 -39 -14 -241 0
69 -56 -9 242 0
69 -56 -9 -242 0
1 11 -62 243 0
1 11 -62 -243 0
-72 60 27 244 0
-72 60 27 -244 0
60 14 -72 245 0
60 14 -72 -245 0
-29 59 23 246 0
-29 59 23 -246 0
24 21 -61 247 0
24 21 -61 -247 0
-3 30 -57 248 0
-3 30 -57 -248 0
-45 30 -49 249 0
-45 30 -49 -249 0
32 72 65 250 0
32 72 65 -250 0
14 -32 69 251 0
14 -32 69 -251 0
-42 -23 -27 252 0
-42 -23 -27 -252 0
-57 -26 -56 253 0
-57 -26 -56 -253 0
15 13 -18 254 0
15 13 -18 -254 0
-43 22 -59 255 0
-43 22 -59 -255 0
-10 -57 63 256 0
-10 -57 63 -256 0
-12 -3 -50 257 0
-12 -3 -50 -257 0
37 40 -71 258 0
37 40 -71 -258 0
62 26 66 259 0
62 26 66 -259 0
-74 -4 -37 260 0
-74 -4 -37 -260 0
-51 -9 43 261 0
-51 -9 43 -261 0
48 66 26 262 0
48 66 26 -262 0
-68 66 -48 263 0
-68 66 -48 -263 0
42 -70 -9 264 0
42 -70 -9 -264 0
47 -72 -49 265 0
47 -72 -49 -265 0
-71 -30 56 266 0
-71 -30 56 -266 0
61 -42 -26 267 0
61 -42 -26 -267 0
-20 -56 -46 268 0
-20 -56 -46 -268 0
-51 -10 -48 269 0
-51 -10 -48 -269 0
29 14 44 270 0
29 14 44 -270 0
49 -18 -52 271 0
49 -18 -52 -271 0
65 -41 -12 272 0
65 -41 -12 -272 0
-71 56 42 273 0
-71 56 42 -273 0
38 34 -68 274 0
38 34 -68 -274 0
-50 14 8 275 0
-50 14 8 -275 0
-25 54 -7 276 0
-25 54 -7 -276 0
-45 -74 -64 277 0
-45 -74 -64 -277 0
56 46 -44 278 0
56 46 -44 -278 0
41 71 27 279 0
41 71 27 -279 0
73 -68 40 280 0
73 -68 40 -280 0
-35 -69 54 281 0
-35 -69 54 -281 0
18 -11 -7 282 0
18 -11 -7 -282 0
57 -31 39 283 0
57 -31 39 -283 0
44 59 57 284 0
44 59 57 -284 0
75 68 -48 285 0
75 68 -48 -285 0
39 30 -27 286 0
39 30 -27 -286 0
22 20 48 287 0
22 20 48 -287 0
-22 3 -63 288 0
-22 3 -63 -288 0
-16 -50 35 289 0
-16 -50 35 -289 0
-5 -51 -29 290 0
-5 -51 -29 -290 0
-26 18 19 291 0
-26 18 19 -291 0
-15 -44 -40 292 0
-15 -44 -40 -292 0
21 18 -64 293 0
21 18 -64 -293 0
59 18 43 294 0
59 18 43 -294 0
54 -20 -70 295 0
54 -20 -70 -295 0
71 -23 67 296 0
71 -23 67 -296 0
-35 14 -57 297 0
-35 14 -57 -297 0
-60 21 -70 298 0
-60 21 -70 -298 0
42 13 15 299 0
42 13 15 -299 0
28 9 -49 300 0
28 9 -49 -300 0
-71 11 -69 301 0
-71 11 -69 -301 0
-1 -60 6 302 0
-1 -60 6 -302 0
35 43 -27 303 0
35 43 -27 -303 0
-25 -57 68 304 0
-25 -57 68 -304 0
-69 -19 -32 305 0
-69 -19 -32 -305 0
13 36 58 306 0
13 36 58 -306 0
73 24 -67 307 0
73 24 -67 -307 0
9 -41 18 308 0
9 -41 18 -308 0
16 -19 15 309 0
16 -19 15 -309 0
-31 51 -24 310 0
-31 51 -24 -310 0
35 31 -24 311 0
35 31 -24 -311 0
25 34 71 312 0
25 34 71 -312 0
66 46 43 313 0
66 46 43 -313 0
-42 21 -55 314 0
-42 21 -55 -314 0
62 -60 14 315 0
62 -60 14 -315 0
73 7 62 316 0
73 7 62 -316 0
-69 -49 56 317 0
-69 -49 56 -317 0
67 -55 -63 318 0
67 -55 -63 -318 0
-70 29 -14 319 0
-70 29 -14 -319 0
13 71 -26 320 0
13 71 -26 -320 0
-58 3 5 321 0
-58 3 5 -321 0
-67 19 -3 322 0
-67 19 -3 -322 0
-65 75 47 323 0
-65 75 47 -323 0
-46 27 -63 324 0
-46 27 -63 -324 0
-26 -14 -68 325 0
-26 -14 -68 -325 0
-49 -22 1 326 0
-49 -22 1 -326 0
7 58 -44 327 0
7 58 -44 -327 0
-2 -20 51 328 0
-2 -20 51 -328 0
-7 43 36 329 0
-7 43 36 -329 0
66 51 -59 330 0
66 51 -59 -330 0
-1 37 57 331 0
-1 37 57 -331 0
-61 -9 52 332 0
-61 -9 52 -332 0
-71 -58 4 333 0
-71 -58 4 -333 0
-50 -22 48 334 0
-50 -22 48 -334 0
35 -24 -59 335 0
35 -24 -59 -335 0
-75 51 -35 336 0
-75 51 -35 -336 0
-64 14 71 337 0
-64 14 71 -337 0
-68 -5 -17 338 0
-68 -5 -17 -338 0
-9 -22 -18 339 0
-9 -22 -18 -339 0
-66 -25 -13 340 0
-66 -25 -13 -340 0
48 42 -38 341 0
48 42 -38 -341 0
-69 -12 6 342 0
-69 -12 6 -342 0
-22 -44 -18 343 0
-22 -44 -18 -343 0
-34 50 12 344 0
-34 50 12 -344 0
-41 -21 -27 345 0
-41 -21 -27 -345 0
41 -42 -37 346 0
41 -42 -37 -346 0
71 -42 1 347 0
71 -42 1 -347 0
52 -16 32 348 0
52 -16 32 -348 0
49 -31 34 349 0
49 -31 34 -349 0
-66 6 -63 350 0
-66 6 -63 -350 0
10 43 19 351 0
10 43 19 -351 0
9 58 -73 352 0
9 58 -73 -352 0
-22 64 -60 353 0
-22 64 -60 -353 0
75 52 -71 354 0
75 52 -71 -354 0
-69 67 -62 355 0
-69 67 -62 -355 0
-39 -45 -30 356 0
-39 -45 -30 -356 0
-60 -66 -28 357 0
-60 -66 -28 -357 0
27 -22 29 358 0
27 -22 29 -358 0
-52 75 10 359 0
-52 75 10 -359 0
28 27 2 360 0
28 27 2 -360 0
1 47 -7 361 0
1 47 -7 -361 0
1 -14 -55 362 0
1 -14 -55 -362 0
68 23 -75 363 0
68 23 -75 -363 0
-54 -11 73 364 0
-54 -11 73 -364 0
74 9 -57 365 0
74 9 -57 -365 0
-37 -24 -36 366 0
-37 -24 -36 -366 0
32 55 -4 367 0
32 55 -4 -367 0
-65 1 -22 368 0
-65 1 -22 -368 0
-63 -1 -66 369 0
-63 -1 -66 -369 0
-16 -62 57 370 0
-16 -62 57 -370 0
62 -25 29 371 0
62 -25 29 -371 0
13 24 -62 372 0
13 24 -62 -372 0
15 25 70 373 0
15 25 70 -373 0
17 -75 18 374 0
17 -75 18 -374 0
56 -1 -68 375 0
56 -1 -68 -375 0
-42 60 -4 376 0
-42 60 -4 -376 0
-2 21 -20 377 0
-2 21 -20 -377 0
-58 51 4 378 0
-58 51 4 -378 0
69 29 17 379 0
69 29 17 -379 0
-17 3 -10 380 0
-17 3 -10 -380 0
20 -61 -69 381 0
20 -61 -69 -381 0
16 -14 -10 382 0
16 -14 -10 -382 0
61 25 69 383 0
61 25 69 -383 0
-31 65 27 384 0
-31 65 27 -384 0
-58 42 31 385 0
-58 42 31 -385 0
-58 -39 17 386 0
-58 -39 17 -386 0
-41 -68 -24 387 0
-41 -68 -24 -387 0
40 56 -23 388 0
40 56 -23 -388 0
-43 48 -47 389 0
-43 48 -47 -389 0
-23 -72 -39 390 0
-23 -72 -39 -390 0
10 47 -21 391 0
10 47 -21 -391 0
-37 -63 -66 392 0
-37 -63 -66 -392 0
58 3 -42 393 0
58 3 -42 -393 0
63 -4 -32 394 0
63 -4 -32 -394 0
-32 -21 41 395 0
-32 -21 41 -395 0
-52 8 1 396 0
-52 8 1 -396 0
-71 -70 -11 397 0
-71 -70 -11 -397 0
47 -37 52 398 0
47 -37 52 -398 0
71 -29 17 399 0
71 -29 17 -399 0
-72 20 35 400 0
-72 20 35 -400 0
401 402 403 404 0
401 402 403 -404 0
401 402 -403 404 0
401 402 -403 -404 0
401 -402 403 404 0
401 -402 403 -404 0
401 -402 -403 404 0
401 -402 -403 -404 0
-401 402 403 404 0
-401 402 403 -404 0
-401 402 -403 404 0
-401 402 -403 -404 0
-401 -402 403 404 0
-401 -402 403 -404 0
-401 -402 -403 404 0
-401 -402 -403 -404 0
405 406 407 408 0
405 406 407 -408 0
405 406 -407 408 0
405 406 -407 -408 0
405 -406 407 408 0
405 -406 407 -408 0
405 -406 -407 408 0
405 -406 -407 -408 0
-405 406 407 408 0
-405 406 407 -408 0
-405 406 -407 408 0
-405 406 -407 -408 0
-405 -406 407 408 0
-405 -406 407 -408 0
-405 -406 -407 408 0
-405 -406 -407 -408 0
409 410 411 412 0
409 410 411 -412 0
409 410 -411 412 0
409 410 -411 -412 0
409 -410 411 412 0
409 -410 411 -412 0
409 -410 -411 412 0
409 -410 -411 -412 0
-409 410 411 412 0
-409 410 411 -412 0
-409 410 -411 412 0
-409 410 -411 -412 0
-409 -410 411 412 0
-409 -410 411 -412 0
-409 -410 -411 412 0
-409 -410 -411 -412 0
